20	12	19	8	12	4	12	12	20	13
14	16	9	12	17	4	5	18	8	6
5	19	2	19	13	6	14	1	5	2
13	5	7	1	4	15	11	8	11	3
12	3	12	6	16	12	5	1	9	18
14	1	4	19	10	16	20	16	1	7
5	13	4	11	16	13	17	7	13	18
5	16	14	4	2	19	18	8	7	8
12	2	3	18	14	5	2	14	20	9
17	12	11	3	3	12	3	13	6	10
1	1	15	17	15	5	13	8	13	17
20	8	3	5	2	18	18	15	9	3
15	10	15	16	7	4	20	17	11	18
16	12	1	13	3	15	15	1	6	1
15	19	5	9	19	6	8	8	4	7
1	11	18	15	19	15	4	6	15	8
3	12	9	14	20	17	4	19	20	13
19	5	11	1	7	16	7	4	19	2
2	20	7	6	17	5	5	16	14	1
